NAME : portcgen-24-14
COMMENT : portcgen N=24, seed=14
TYPE : TSP
DIMENSION : 24
EDGE_WEIGHT_TYPE : EUC_2D
NODE_COORD_SECTION
1 -530606 -223116
2 -300884 367599
3 75393 -123822
4 127616 -93176
5 333971 -128030
6 145047 -146205
7 217228 -55403
8 296429 -52475
9 -45651 -228915
10 -165321 -49636
11 -135028 -60938
12 13395 59747
13 -250137 -67416
14 182047 445903
15 103036 226218
16 92477 86622
17 139792 -341038
18 102063 -98896
19 105216 -133810
20 -171813 216701
21 -258093 -335040
22 -115191 -311843
23 413816 -266673
24 -87863 -77277
